c --- [ banner ] -------------------------------------------------------------
c 
c CaDiCaL Radically Simplified CDCL SAT Solver
c Copyright (c) 2016-2021 A. Biere, M. Fleury, N. Froleyks
c 
c Version 1.5.2 ca9bff05c11bde5eae4912f9932871d1527e61d8
c g++ (GCC) 9.3.0 -Wall -Wextra -O3 -DNDEBUG
c Sun May 1 02:23:23 EDT 2022 Linux gra-login1 3.10.0-1160.59.1.el7.x86_64 x86_64
c 
c --- [ limit ] --------------------------------------------------------------
c 
c setting conflict limit to 200000 conflicts (due to '200000')
c 
c --- [ parsing input ] ------------------------------------------------------
c 
c reading DIMACS file from '12.cubes1235.adj'
c opening file to read '12.cubes1235.adj'
c found 'p cnf 5320 924210' header
c parsed 924210 clauses in 8.80 seconds process time
c closing file '12.cubes1235.adj'
c after reading 686668114 bytes 654.9 MB
c 
c --- [ options ] ------------------------------------------------------------
c 
c all options are set to their default value
c 
c --- [ solving ] ------------------------------------------------------------
c 
c time measured in process time since initialization
c 
c  seconds   reductions  redundant  irredundant
c          MB    restarts       trail      variables
c           level   conflicts       glue        remaining
c 
c *  8.80 692  0 0   0    0    0  0% 0 923580 4066 76%
c {  9.46 725  0 0   0    0    0  0% 0 923580 4066 76%
c i  9.99 733 88 0   0   36   34 39% 2 923580 4046 76%
c i 10.16 735 82 0   1   43   40 40% 2 923580 4000 75%
c i 10.16 735 80 0   2   44   40 40% 2 923580 3985 75%
c i 10.53 743 104 0   5   63   55 48% 10 923580 3984 75%
c i 10.72 746 101 0   9   77   66 47% 13 923580 3983 75%
c i 10.78 746 97 0  11   85   70 47% 13 923580 3968 75%
c i 10.96 747 35 0  20  300   93 39% 11 923580 3967 75%
c - 12.71 709 35 1  20  300   92 39% 11 161408 3966 75%
c } 12.78 709 15 1  20 1001  169 36% 7 161408 3966 75%
c [ 12.78 709  0 1  20 1001  169  0% 0 161408 3966 75%
c O 12.78 709  1 1  20 1002  169 27% 0 161408 3966 75%
c i 12.78 709  1 1  20 1002  169 27% 0 161408 3946 74%
c i 12.78 709  1 1  20 1006  171 28% 1 161408 3924 74%
c i 12.78 709  1 1  20 1007  171 28% 1 161408 3904 73%
c - 13.13 770  5 2  20 1026  141 31% 4 160617 3904 73%
c i 13.14 770  5 2  20 1120  153 35% 5 160617 3895 73%
c i 13.19 770  9 2  20 1134  166 37% 6 160617 3894 73%
c i 13.20 770  9 2  20 1138  167 38% 6 160617 3893 73%
c 
c  seconds   reductions  redundant   irredundant
c          MB    restarts       trail       variables
c           level   conflicts       glue         remaining
c 
c i 13.22 770 14 2  20 1194  210 44% 11 160617 3892 73%
c i 13.23 770 16 2  20 1246  247 47% 12 160617 3891 73%
c i 13.23 770 16 2  20 1259  257 47% 12 160617 3890 73%
c i 13.25 770 16 2  20 1309  280 48% 12 160617 3889 73%
c i 13.25 770 16 2  20 1313  283 48% 12 160617 3888 73%
c i 13.25 770 16 2  20 1323  286 49% 13 160617 3887 73%
c i 13.25 770 16 2  20 1337  291 49% 12 160617 3886 73%
c i 13.26 770 16 2  20 1343  296 49% 13 160617 3885 73%
c i 13.26 770 16 2  20 1348  299 49% 13 160617 3884 73%
c i 13.26 770 16 2  20 1351  301 49% 13 160617 3883 73%
c i 13.26 770 16 2  20 1354  301 49% 13 160617 3882 73%
c i 13.26 770 16 2  20 1357  303 49% 13 160617 3881 73%
c i 13.26 770 16 2  20 1385  317 50% 13 160617 3880 73%
c i 13.27 770 16 2  20 1394  317 50% 13 160617 3879 73%
c i 13.27 770 16 2  20 1396  318 50% 13 160617 3878 73%
c i 13.27 770 16 2  20 1404  321 50% 13 160617 3877 73%
c i 13.27 770 16 2  20 1405  321 50% 13 160617 3876 73%
c i 13.29 770 15 2  20 1534  390 52% 13 160617 3875 73%
c i 13.30 770 15 2  20 1580  417 52% 13 160617 3874 73%
c i 13.30 770 15 2  20 1583  419 52% 13 160617 3873 73%
c 
c  seconds   reductions  redundant   irredundant
c          MB    restarts       trail       variables
c           level   conflicts       glue         remaining
c 
c i 13.31 770 16 2  20 1605  435 52% 13 160617 3872 73%
c i 13.31 770 16 2  20 1625  444 52% 13 160617 3871 73%
c i 13.32 770 17 2  20 1684  481 52% 14 160617 3870 73%
c i 13.33 770 17 2  20 1715  499 53% 14 160617 3869 73%
c i 13.33 770 17 2  20 1725  503 53% 14 160617 3868 73%
c i 13.34 770 17 2  20 1789  543 53% 14 160617 3867 73%
c i 13.34 770 17 2  20 1794  540 53% 14 160617 3866 73%
c i 13.35 770 17 2  20 1797  542 53% 14 160617 3865 73%
c i 13.35 770 17 2  20 1810  550 53% 14 160617 3864 73%
c i 13.35 770 17 2  20 1846  569 53% 14 160617 3863 73%
c i 13.35 770 17 2  20 1847  569 53% 14 160617 3862 73%
c i 13.36 770 17 2  20 1878  581 53% 14 160617 3861 73%
c i 13.37 770 17 2  20 1899  588 53% 14 160617 3860 73%
c i 13.39 770 17 2  20 1979  604 53% 14 160617 3859 73%
c i 13.40 770 16 2  20 2032  628 53% 14 160617 3858 73%
c i 13.41 770 17 2  21 2072  656 53% 14 160617 3857 72%
c - 13.59 728 17 3  21 2116  652 53% 14 160317 3856 72%
c i 13.71 728 16 3  21 2145  671 40% 14 160317 3855 72%
c i 13.73 728 16 3  21 2229  707 39% 14 160317 3854 72%
c i 13.76 728 17 3  21 2366  776 39% 15 160317 3853 72%
c 
c  seconds   reductions  redundant   irredundant
c          MB    restarts       trail       variables
c           level   conflicts       glue         remaining
c 
c i 13.76 728 17 3  21 2384  785 39% 15 160317 3852 72%
c i 13.77 728 17 3  21 2453  811 39% 15 160317 3851 72%
c i 13.79 728 18 3  21 2548  860 39% 15 160317 3850 72%
c i 13.79 728 17 3  21 2550  861 39% 15 160317 3849 72%
c i 13.79 728 17 3  21 2551  861 39% 15 160317 3848 72%
c i 13.79 728 18 3  21 2557  863 39% 15 160317 3847 72%
c i 13.80 728 18 3  21 2564  866 39% 15 160317 3846 72%
c i 13.80 728 18 3  21 2567  867 38% 15 160317 3845 72%
c i 13.80 728 18 3  21 2568  867 38% 15 160317 3844 72%
c i 13.80 728 18 3  21 2573  870 38% 15 160317 3843 72%
c i 13.80 728 18 3  21 2597  882 38% 15 160317 3842 72%
c i 13.83 728 18 3  21 2705  933 39% 15 160317 3841 72%
c i 13.83 728 18 3  21 2711  937 39% 15 160317 3840 72%
c i 13.85 728 18 3  21 2804  981 39% 15 160317 3839 72%
c ] 13.89 728 18 3  21 3001 1080 39% 15 160317 3839 72%
c { 13.89 728 15 3  21 3001 1080 49% 7 160317 3839 72%
c F 13.89 728 15 3  21 3005 1084 49% 8 160317 3839 72%
c i 14.01 728 16 3  26 3042 1113 49% 8 160317 3838 72%
c i 14.03 728 16 3  34 3073 1127 48% 8 160317 3837 72%
c i 14.06 728 17 3  39 3089 1142 47% 9 160317 3836 72%
c 
c  seconds   reductions  redundant  irredundant
c          MB    restarts       trail      variables
c           level   conflicts       glue        remaining
c 
c i 14.10 728 17 3  45 3111 1155 47% 9 160317 3835 72%
c i 14.13 728 20 3  51 3139 1179 47% 10 160317 3834 72%
c i 14.13 728 21 3  54 3151 1182 46% 10 160317 3833 72%
c i 14.13 728 21 3  55 3152 1182 46% 10 160317 3832 72%
c i 14.14 728 21 3  55 3153 1182 46% 10 160317 3831 72%
c i 14.15 728 21 3  58 3164 1191 46% 10 160317 3830 72%
c i 14.21 728 21 3  75 3225 1237 46% 10 160317 3829 72%
c i 14.23 728 22 3  83 3262 1261 45% 11 160317 3828 72%
c i 14.27 728 22 3 101 3332 1293 44% 11 160317 3827 72%
c i 14.28 728 22 3 105 3347 1303 44% 11 160317 3826 72%
c - 14.70 725 24 4 160 3561 1117 43% 13 160227 3826 72%
c i 14.76 725 23 4 169 3746 1139 40% 13 160227 3825 72%
c i 14.77 725 23 4 169 3749 1140 40% 13 160227 3824 72%
c i 14.78 725 23 4 169 3755 1145 40% 13 160227 3819 72%
c i 14.79 725 23 4 169 3761 1150 40% 13 160227 3818 72%
c i 14.84 725 23 4 173 3783 1168 40% 13 160227 3817 72%
c i 14.86 725 23 4 175 3790 1174 40% 13 160227 3798 71%
c i 14.88 725 22 4 180 3902 1186 39% 13 160227 3795 71%
c i 14.89 725 22 4 180 3907 1189 39% 13 160227 3794 71%
c i 14.92 725 22 4 180 3926 1206 39% 13 160227 3793 71%
c 
c  seconds   reductions  redundant   irredundant
c          MB    restarts       trail       variables
c           level   conflicts       glue         remaining
c 
c i 14.94 725 23 4 182 3943 1221 39% 13 160227 3791 71%
c i 14.95 725 22 4 185 3972 1227 38% 13 160227 3790 71%
c i 15.03 725 22 4 185 4111 1294 37% 13 160227 3789 71%
c i 15.04 725 23 4 186 4123 1304 37% 13 160227 3788 71%
c i 15.09 725 22 4 198 4217 1335 36% 13 160227 3787 71%
c i 15.25 725 25 4 229 4371 1451 36% 14 160227 3785 71%
c i 15.32 725 25 4 238 4409 1481 36% 15 160227 3784 71%
c i 15.37 725 25 4 245 4445 1507 36% 15 160227 3783 71%
c i 15.38 725 25 4 248 4458 1511 36% 15 160227 3782 71%
c i 15.48 725 25 4 264 4562 1583 36% 15 160227 3781 71%
c i 15.48 725 25 4 264 4564 1584 36% 15 160227 3780 71%
c i 15.48 725 25 4 264 4565 1584 36% 15 160227 3779 71%
c i 15.48 725 25 4 264 4568 1586 36% 15 160227 3778 71%
c i 15.48 725 25 4 264 4576 1593 36% 15 160227 3777 71%
c i 15.55 725 26 4 272 4629 1629 35% 15 160227 3776 71%
c i 15.69 725 27 4 311 4788 1749 36% 15 160227 3775 71%
c d 16.10 725 27 4 358 5002 1880 35% 16 124239 3757 71%
c 2 16.14 725 27 4 358 5002 3896 35% 16 124180 3757 71%
c p 17.95 725 27 4 358 5002 10457 35% 16 124180 3641 68%
c d 18.12 725 27 4 358 5002 10014 35% 16 115154 3635 68%
c 
c  seconds   reductions  redundant   irredundant
c          MB    restarts       trail       variables
c           level   conflicts       glue         remaining
c 
c - 18.46 672 27 5 372 5371 1603 36% 16 115154 3635 68%
c # 18.91 672 25 5 386 6006 1976 36% 16 115154 3635 68%
c } 19.35 672 23 5 402 7001 2533 36% 15 115154 3635 68%
c [ 19.35 672 18 5 402 7001 2533 39% 15 115154 3635 68%
c - 19.46 672 18 6 403 7282 1874 39% 15 115154 3635 68%
c - 20.09 672 19 7 404 9510 2162 39% 16 115154 3635 68%
c I 20.19 672 20 7 404 10007 2463 39% 16 115154 3635 68%
c - 21.65 672 24 8 406 12057 2779 38% 20 115154 3635 68%
c - 23.76 672 25 9 407 14922 3217 37% 21 115154 3635 68%
c ] 23.82 672 25 9 407 15001 3278 37% 21 115154 3635 68%
c { 23.82 672 23 9 407 15001 3278 36% 15 115154 3635 68%
c 2 23.85 672 23 9 407 15002 5042 36% 15 115147 3635 68%
c p 24.73 672 23 9 407 15002 11003 36% 15 115147 3635 68%
c B 24.79 672 23 9 407 15008 11008 36% 15 115147 3635 68%
c i 24.80 672 23 9 407 15013 11009 36% 15 115147 3634 68%
c s 25.13 672 23 9 426 15658 10901 37% 15 113051 3634 68%
c v 26.23 672 23 9 426 15658 10901 37% 15 112966 3634 68%
c t 26.30 672 23 9 426 15658 10869 37% 15 112910 3634 68%
c e 26.58 673 23 9 426 15658 4470 37% 15 107097 641 12%
c s 26.66 673 23 9 426 15658 4470 37% 15 106049 641 12%
c 
c  seconds   reductions    redundant   irredundant
c          MB     restarts        trail       variables
c           level     conflicts       glue        remaining
c 
c - 28.08 673 21 10 534 18106 3463 73% 15 106049 641 12%
c W 29.58 673 22 10 790 21014 5312 72% 15 106049 641 12%
c - 29.80 673 22 11 841 21491 3711 73% 15 106049 641 12%
c - 30.89 673 21 12 957 25183 3981 73% 15 106049 641 12%
c F 31.38 673 19 12 957 28018 6083 73% 14 106049 641 12%
c - 32.20 673 19 13 1052 29187 4838 73% 14 106049 641 12%
c 3 32.38 673 19 13 1064 30003 5806 73% 14 106049 641 12%
c 2 32.40 673 19 13 1064 30003 5844 73% 14 106046 641 12%
c p 33.03 673 19 13 1064 30003 7281 73% 14 106046 639 12%
c } 33.30 673 19 13 1085 31004 7813 74% 14 106046 639 12%
c [ 33.30 673 25 13 1085 31004 7813 222% 21 106046 639 12%
c - 33.91 673 24 14 1085 33495 5067 189% 20 106040 639 12%
c ] 34.07 673 24 14 1086 34036 5381 183% 20 106040 639 12%
c 1 34.07 673 24 14 1086 34036 5381 183% 20 106040 639 12%
c 
c --- [ writing output ] -----------------------------------------------------
c 
c writing simplified CNF to DIMACS file 'simp/12.cubes1235.adj.simp1'
c * 34.07 673 24 14 1086 34036 5381 183% 20 106040 639 12%
c opening file to write 'simp/12.cubes1235.adj.simp1'
c writing 'p cnf 5320 106040' header
c closing file 'simp/12.cubes1235.adj.simp1'
c after writing 37498087 bytes 35.8 MB
c wrote 106040 clauses in 0.27 seconds process time
c 
c --- [ writing extension ] --------------------------------------------------
c 
c writing extension stack to 'simp/12.cubes1235.adj.ext1'
c opening file to write 'simp/12.cubes1235.adj.ext1'
c closing file 'simp/12.cubes1235.adj.ext1'
c after writing 177925 bytes 0.2 MB
c wrote 8027 witnesses in 0.00 seconds process time
c 
c --- [ result ] -------------------------------------------------------------
c 
s SATISFIABLE
c 
c --- [ run-time profiling ] -------------------------------------------------
c 
c process time taken by individual solving procedures
c (percentage relative to process time for solving)
c 
c        19.60   77.56% search
c        12.54   49.64% unstable
c         8.80   34.83% parse
c         6.35   25.12% stable
c         5.67   22.44% simplify
c         3.31   13.10% probe
c         1.15    4.54% vivify
c         0.66    2.59% lucky
c         0.56    2.20% elim
c         0.15    0.61% subsume
c         0.07    0.28% ternary
c         0.05    0.21% walk
c   =================================
c        25.27   73.57% solve
c 
c last line shows process time for solving
c (percentage relative to total process time)
c 
c --- [ statistics ] ---------------------------------------------------------
c 
c chronological:              5505        16.17 %  of conflicts
c conflicts:                 34036      1346.96    per second
c decisions:                 73917      2925.23    per second
c eliminated:                 2993        56.26 %  of all variables
c fixed:                      1664        31.28 %  of all variables
c learned:                   33373        98.05 %  per conflict
c learned_lits:            5006677       100.00 %  learned literals
c minimized:                     0         0.00 %  learned literals
c shrunken:                3434894        68.61 %  learned literals
c minishrunken:             331052         6.61 %  learned literals
c propagations:            4195712         0.17 M  per second
c reduced:                   14693        43.17 %  per conflict
c rephased:                      7      4862.29    interval
c restarts:                   1086        31.34    interval
c stabilizing:                   3        38.29 %  of conflicts
c substituted:                  24         0.45 %  of all variables
c subsumed:                  16682         0.81 %  of all clauses
c strengthened:               4280         0.21 %  of all clauses
c ternary:                    4327         0.55 %  of resolved
c vivified:                     98         0.00 %  of all clauses
c walked:                        1     34036.00    interval
c weakened:                   6363         2.94    average size
c 
c seconds are measured in process time for solving
c 
c --- [ resources ] ----------------------------------------------------------
c 
c total process time since initialization:        34.35    seconds
c total real time since initialization:           34.38    seconds
c maximum resident set size of process:          827.15    MB
c 
c --- [ shutting down ] ------------------------------------------------------
c 
c exit 10
WARNING! DIMACS header mismatch: wrong number of variables.
============================[ Problem Statistics ]=============================
|                                                                             |
|  Number of variables:          4281                                         |
|  Number of clauses:          106044                                         |
|  Parse time:                   0.50 s                                       |
|  Simplification time:          0.01 s                                       |
|                                                                             |
============================[ Search Statistics ]====================================================
| Conflicts |          ORIGINAL         |          LEARNT          | Num Sols |      SUBGRAPHS      |
|           |    Vars  Clauses Literals |    Limit  Clauses Lit/Cl |          | Canonical Noncanon. |
=====================================================================================================
|       105 |    4195   106049  8436554 |     2000      105     10 |        0 |        20         5 |
|       333 |    4195   106127  8437264 |     2000      333     14 |        0 |        79        83 |
|       584 |    4195   106153  8437721 |     2000      584     38 |        0 |        92       109 |
|       938 |    4195   106170  8438007 |     2000      938     50 |        0 |       105       126 |
|      1456 |    4195   106182  8438181 |     2000     1456     65 |        0 |       111       138 |
|      2344 |    4195   106311  8439550 |     3603     1347     39 |        0 |       158       267 |
|      3852 |    4195   106680  8443538 |     3603     2855     48 |        0 |       272       636 |
=====================================================================================================
Number of solutions   : 0
Canonical subgraphs   : 340            (173 /sec)
          order  3    : 1              (142857 /sec)
          order  4    : 1              (500000 /sec)
          order  5    : 1              (250000 /sec)
          order  6    : 1              (55556 /sec)
          order  7    : 2              (10000 /sec)
          order  8    : 4              (3350 /sec)
          order  9    : 7              (1388 /sec)
          order 10    : 27             (774 /sec)
          order 11    : 65             (355 /sec)
          order 12    : 147            (187 /sec)
          order 13    : 57             (93 /sec)
          order 14    : 20             (83 /sec)
          order 15    : 7              (66 /sec)
          order 16    : 0              (-nan /sec)
          order 17    : 0              (-nan /sec)
          order 18    : 0              (-nan /sec)
          order 19    : 0              (-nan /sec)
          order 20    : 0              (-nan /sec)
          order 21    : 0              (-nan /sec)
Noncanonical subgraphs: 869            (4862 /sec)
          order  3    : 0              (-nan /sec)
          order  4    : 0              (-nan /sec)
          order  5    : 0              (-nan /sec)
          order  6    : 0              (-nan /sec)
          order  7    : 0              (-nan /sec)
          order  8    : 0              (-nan /sec)
          order  9    : 0              (-nan /sec)
          order 10    : 0              (-nan /sec)
          order 11    : 0              (-nan /sec)
          order 12    : 0              (-nan /sec)
          order 13    : 690            (5361 /sec)
          order 14    : 151            (4265 /sec)
          order 15    : 27             (2481 /sec)
          order 16    : 1              (266 /sec)
          order 17    : 0              (-nan /sec)
          order 18    : 0              (-nan /sec)
          order 19    : 0              (-nan /sec)
          order 20    : 0              (-nan /sec)
Canonicity checking   : 1.96578 s
Noncanonicity checking: 0.178745 s
Total canonicity time : 2.14452 s
database reductions   : 2
restarts              : 25
conflicts             : 4668           (1297 /sec)
decisions             : 15800          (0.00 % random) (4390 /sec)
propagations          : 211838         (58859 /sec)
conflict literals     : 254504         (52.86 % deleted)
actual reward         : 0.225260
Memory used           : 57.00 MB
CPU time              : 3.59905 s

UNSATISFIABLE
